(set-logic LIA)
(synth-fun f ((a1 Int) (a2 Int) (a3 Int) (a4 Int) (a5 Int) (a6 Int) (a7 Int) (a8 Int) (a9 Int) (a10 Int) (a11 Int) (x1 Int) (x2 Int) (x3 Int) ) Int)
(define-fun iteB (( b1 Bool ) (b2 Bool ) (b3 Bool )) Bool ( or ( and b1 b2 ) ( and (not b1 ) b3 ) ) )

(declare-var a1 Int)
(declare-var a2 Int)
(declare-var a3 Int)
(declare-var a4 Int)
(declare-var a5 Int)
(declare-var a6 Int)
(declare-var a7 Int)
(declare-var a8 Int)
(declare-var a9 Int)
(declare-var a10 Int)
(declare-var a11 Int)
(declare-var x1 Int)
(declare-var x2 Int)
(declare-var x3 Int)

(constraint (and (= (f a1 a2 a3 a4 a5 a6 a7 a8 a9 a10 a11 x1 x2 x3) (f a1 a2 a3 a4 a5 a6 a7 a8 a9 a10 a11 x2 x1 x3))
(iteB (and (>= a1 a2) (>= a1 a3) (>= a1 a4) (>= a1 a5) (>= a1 a6) (>= a1 a7) (>= a1 a8) (>= a1 a9) (>= a1 a10) (>= a1 a11)) 
(or (= (f a1 a2 a3 a4 a5 a6 a7 a8 a9 a10 a11 x1 x2 x3) (+ (* 10 x1) (+ (* 24 x2) (* x3 8)))) (= (f a1 a2 a3 a4 a5 a6 a7 a8 a9 a10 a11 x1 x2 x3)
 (+ (* 10 x2) (+ (* 24 x1) (* x3 8))))) (iteB (and (>= a2 a1) (>= a2 a3) (>= a2 a4) (>= a2 a5) (>= a2 a6) (>= a2 a7) (>= a2 a8) (>= a2 a9) (>= a2 a10) (>= a2 a11))
  (or (= (f a1 a2 a3 a4 a5 a6 a7 a8 a9 a10 a11 x1 x2 x3) (+ (* 11 x1) (+ (* 25 x2) (* x3 9)))) (= (f a1 a2 a3 a4 a5 a6 a7 a8 a9 a10 a11 x1 x2 x3) 
  (+ (* 11 x2) (+ (* 25 x1) (* x3 9))))) (iteB (and (>= a3 a1) (>= a3 a2) (>= a3 a4) (>= a3 a5) (>= a3 a6) (>= a3 a7) (>= a3 a8) (>= a3 a9) 
  (>= a3 a10) (>= a3 a11)) (or (= (f a1 a2 a3 a4 a5 a6 a7 a8 a9 a10 a11 x1 x2 x3) (+ (* 12 x1) (+ (* 26 x2) (* x3 10)))) 
  
  (= (f a1 a2 a3 a4 a5 a6 a7 a8 a9 a10 a11 x1 x2 x3) 
  (+ (* 12 x2) (+ (* 26 x1) (* x3 10))))) 
  (iteB (and (>= a4 a1) (>= a4 a2) (>= a4 a3) (>= a4 a5) (>= a4 a6) (>= a4 a7) (>= a4 a8) (>= a4 a9) (>= a4 a10) (>= a4 a11)) 
  (or (= (f a1 a2 a3 a4 a5 a6 a7 a8 a9 a10 a11 x1 x2 x3) (+ (* 13 x1) (+ (* 27 x2) (* x3 11)))) (= (f a1 a2 a3 a4 a5 a6 a7 a8 a9 a10 a11 x1 x2 x3) 
  (+ (* 13 x2) (+ (* 27 x1) (* x3 11))))) 
  (iteB (and (>= a5 a1) (>= a5 a2) (>= a5 a3) (>= a5 a4) (>= a5 a6) (>= a5 a7) (>= a5 a8) (>= a5 a9) (>= a5 a10) (>= a5 a11)) (or (= (f a1 a2 a3 a4 a5 a6 a7 a8 a9 a10 a11 x1 x2 x3) (+ (* 14 x1) (+ (* 28 x2) (* x3 12)))) (= (f a1 a2 a3 a4 a5 a6 a7 a8 a9 a10 a11 x1 x2 x3) (+ (* 14 x2) (+ (* 28 x1) (* x3 12))))) (iteB (and (>= a6 a1) (>= a6 a2) (>= a6 a3) (>= a6 a4) (>= a6 a5) (>= a6 a7) (>= a6 a8) (>= a6 a9) (>= a6 a10) (>= a6 a11)) (or (= (f a1 a2 a3 a4 a5 a6 a7 a8 a9 a10 a11 x1 x2 x3) (+ (* 15 x1) (+ (* 29 x2) (* x3 13)))) (= (f a1 a2 a3 a4 a5 a6 a7 a8 a9 a10 a11 x1 x2 x3) (+ (* 15 x2) (+ (* 29 x1) (* x3 13))))) (iteB (and (>= a7 a1) (>= a7 a2) (>= a7 a3) (>= a7 a4) (>= a7 a5) (>= a7 a6) (>= a7 a8) (>= a7 a9) (>= a7 a10) (>= a7 a11)) (or (= (f a1 a2 a3 a4 a5 a6 a7 a8 a9 a10 a11 x1 x2 x3) (+ (* 16 x1) (+ (* 30 x2) (* x3 14)))) (= (f a1 a2 a3 a4 a5 a6 a7 a8 a9 a10 a11 x1 x2 x3) (+ (* 16 x2) (+ (* 30 x1) (* x3 14))))) (iteB (and (>= a8 a1) (>= a8 a2) (>= a8 a3) (>= a8 a4) (>= a8 a5) (>= a8 a6) (>= a8 a7) (>= a8 a9) (>= a8 a10) (>= a8 a11)) (or (= (f a1 a2 a3 a4 a5 a6 a7 a8 a9 a10 a11 x1 x2 x3) (+ (* 17 x1) (+ (* 31 x2) (* x3 15)))) (= (f a1 a2 a3 a4 a5 a6 a7 a8 a9 a10 a11 x1 x2 x3) (+ (* 17 x2) (+ (* 31 x1) (* x3 15))))) (iteB (and (>= a9 a1) (>= a9 a2) (>= a9 a3) (>= a9 a4) (>= a9 a5) (>= a9 a6) (>= a9 a7) (>= a9 a8) (>= a9 a10) (>= a9 a11)) (or (= (f a1 a2 a3 a4 a5 a6 a7 a8 a9 a10 a11 x1 x2 x3) (+ (* 18 x1) (+ (* 32 x2) (* x3 16)))) (= (f a1 a2 a3 a4 a5 a6 a7 a8 a9 a10 a11 x1 x2 x3) (+ (* 18 x2) (+ (* 32 x1) (* x3 16))))) (iteB (and (>= a10 a1) (>= a10 a2) (>= a10 a3) (>= a10 a4) (>= a10 a5) (>= a10 a6) (>= a10 a7) (>= a10 a8) (>= a10 a9) (>= a10 a11)) (or (= (f a1 a2 a3 a4 a5 a6 a7 a8 a9 a10 a11 x1 x2 x3) (+ (* 19 x1) (+ (* 33 x2) (* x3 17)))) (= (f a1 a2 a3 a4 a5 a6 a7 a8 a9 a10 a11 x1 x2 x3) (+ (* 19 x2) (+ (* 33 x1) (* x3 17)))))  (or (= (f a1 a2 a3 a4 a5 a6 a7 a8 a9 a10 a11 x1 x2 x3) (+ (* 20 x1) (+ (* 34 x2) (* x3 18)))) (= (f a1 a2 a3 a4 a5 a6 a7 a8 a9 a10 a11 x1 x2 x3) (+ (* 20 x2) (+ (* 34 x1) (* x3 18)))))))))))))))
))

(check-synth)